SPARKNaCl/why3-z3/sparknacl-hashing-sha2_common.adb_97_63_range_check2_1.smt2
;; produced by z3_gnatprove.drv ;;
(set-info :smt-lib-version 2.5)
(set-info :source |VC generated by SPARK 2014|)
(set-info :category industrial)
(set-info :status unknown)
;;; generated by SMT-LIB2 driver
;;; SMT-LIB2 driver: bit-vectors, common part
;;; SMT-LIB2: integer arithmetic
;; "in_range"
(define-fun in_range ((x Int)) Bool
  (and (<= (- 2147483648) x) (<= x 2147483647)))

(declare-const index Int)

(declare-const shift_amount Int)

;; "in_range"
(define-fun in_range1 ((x Int)) Bool
  (and (<= 0 x) (<= x 7)))

;; "Assume"
(assert true)

;; "Assume"
(assert (in_range1 index))

;; "o"
(define-fun o () Int
  (- 7 index))

;; "infix -'result'unused"
(define-fun infix_mnqtresultqtunused () Int
  o)

;; "ada___ada___sparknacl__hashing__sha2_common__big_endian_get_byte__shift_amount__assume"
(define-fun ada___ada___sparknacl__hashing__sha2_common__big_endian_get_byte__shift_amount__assume 
  () Int
  (* o 8))

;; "infix *'result'unused"
(define-fun infix_asqtresultqtunused () Int
  ada___ada___sparknacl__hashing__sha2_common__big_endian_get_byte__shift_amount__assume)

;; "Assume"
(assert
  (= ada___ada___sparknacl__hashing__sha2_common__big_endian_get_byte__shift_amount__assume 
  shift_amount))

;; "Assume"
(assert (in_range shift_amount))

;; "o"
(define-fun o1 () Int
  shift_amount)

;; Goal "def'vc"
;; File "sparknacl-hashing-sha2_common.ads", line 15, characters 0-0
(assert
  (not (<= o1 2147483647)))

(check-sat)
